Siemens electrographite (SEG) pile
c
c Patrick Park
c pjp2136@columbia.edu
c
c __________________
c Default MCNP units
c Length: cm
c Mass: g
c Energy & Temp.: MeV
c Positive density (+x): atoms/barn-cm
c Negative density (-x): g/cm3
c
c
c --Begin Cells--
c
9     0  #2 #1 imp:n=0 $ void
1 10001  -19.01  +11 -12 +13 -14 +15 -16  imp:n=1 $ NU cube
2 10602   -1.70  +21 -22 +23 -24 +25 -26      
                 (-11:+12:-13:+14:-15:+16)  imp:n=1 $ siemens electrographite
c
c

c
c --Begin Surfaces--
c 10 = uranium / 20 = graphite
c
11 px -2.5  
12 px  2.5 
13 py -2.5 
14 py  2.5 
15 pz -2.5 
16 pz  2.5 
c
*21 px -13.0
*22 px +13.0
*23 py -13.0
*24 py +13.0
*25 pz -13.0
*26 pz +13.0
c

c --Begin Options--
c
c -- Pure Natural Uranium -- 19.01 g/cc --
c Uranium atom fracs from Sandia Nat Lab "MatMCNP code" SAND2014-17693
c
m10001    92238.80c  -0.992886 
          92235.80c  -0.007114
c
c MCNP6.2 does not support S(a,b) for fissionable material
c
c
c -- Pure Graphite -- 1.70 g/cc --
c  +at frac -mass frac
c
m10602    6012.00c  -0.988416         
          6013.00c  -0.011584    
c
mt10602   grph.40t
c
c
ksrc 0 0 0
c
c nps 1e+6
mode n
kcode 200000 1 15 115
kopts blocksize=10 kinetics=yes precursor=yes
c