Nominal uranium + B7/B8 graphite pile
c
c Patrick Park
c pjp2136@columbia.edu
c
c __________________
c Default MCNP units
c Length: cm
c Mass: g
c Energy & Temp.: MeV
c Positive density (+x): atoms/barn-cm
c Negative density (-x): g/cm3
c
c
c       CELL CARDS ************************************************************
c
  9     0                 +20   imp:n=0 $ void
  1     100  -19.01   -10       imp:n=1 $ uranium
  2     601   -1.70   +10 -20   imp:n=1 $ graphite
c
c       ***********************************************************************
c

c
c       SURFACE CARDS *********************************************************
c 
  10    rpp   -2.5  +2.5   -2.5  +2.5   -2.5  +2.5   $ uranium cube
 *20    rpp   -7.0  +7.0   -7.0  +7.0   -7.0  +7.0   $ graphite cube (reflected)
c
c       ***********************************************************************
c

c
c       DATA CARDS ************************************************************
c
c       -----------------------------------------------------------------------
c       Natural uranium (nominal) | 19.01 g/cc | 294 K 
c         Uranium isotope fracs from PNNL-15870Rev2 (2021)
c       -----------------------------------------------------------------------
c
  m100  92234.00c  -0.000057
        92235.00c  -0.007204
        92238.00c  -0.992739
c
c
c
c
c       -----------------------------------------------------------------------
c       Natural uranium from Degussa Co. | 18.5349 g/cc | 294 K 
c         7.1 wppm EBC from Pesic (2019) & Mayer (2015)
c         Uranium isotope fracs from PNNL-15870Rev2 (2021)
c       -----------------------------------------------------------------------
c
c m101  92234.00c  -0.000057
c       92235.00c  -0.007204
c       92238.00c  -0.992739
c        5010.00c  -0.0000013916 $ .196*7.1/10^6
c        5011.00c  -0.0000057013 $ .803*7.1/10^6
c
c
c
c
c       -----------------------------------------------------------------------
c       Graphite (nominal) | 1.70 g/cc | 294 K 
c       -----------------------------------------------------------------------
c
c m600   6012.00c 0.9893   $ C-12
c        6013.00c 0.0107   $ C-13
c
c mt600 grph30.40t $ 30% porosity S(a,B) from 1.7/2.26=0.75=~25% porosity
c
c
c
c
c       -----------------------------------------------------------------------
c       B7 graphite | 1.70 g/cc | 294 K 
c         Impurities from Hanle (1941) + halved according to Bopp (1945)
c         Atom fractions | B: 3.50e-06 | Cd: 1.00e-07
c         EBC wppm | B: 3.150385e+00 | Cd: 2.906586e-01 | total: 3.441044e+00
c       -----------------------------------------------------------------------
c
  m601   6012.00c 9.892964e-01   $ C-12
         6013.00c 1.069996e-02   $ C-13
         5010.00c 6.964975e-07   $ B-10
         5011.00c 2.803490e-06   $ B-11
        48110.00c 1.248996e-08   $ Cd-110
        48111.00c 1.279995e-08   $ Cd-111
        48112.00c 2.412991e-08   $ Cd-112
        48113.00c 1.221996e-08   $ Cd-113
        48114.00c 2.872990e-08   $ Cd-114
        48116.00c 7.489973e-09   $ Cd-116
c
  mt601 grph30.40t $ 30% porosity S(a,B) from 1.7/2.26=0.75=~25% porosity
c
c
c
c
c       -----------------------------------------------------------------------
c       AGOT graphite | 1.60 g/cc | 294 K 
c         Impurities from Park (2025)
c         Atom fractions | B: 1.55e-06 | Cd: 0.00e+00
c         EBC wppm | B: 1.399675e+00 | Cd: 0.00e+00 | total: 1.399675e+00
c       -----------------------------------------------------------------------
c
c m602   6012.00c  9.892986e-01   $ C-12
c        6013.00c  1.069999e-02   $ C-13
c        5010.00c  3.094445e-07   $ B-10
c        5011.00c  1.245553e-06   $ B-11
c
c mt602 grph30.40t $ 30% porosity S(a,B) from 1.7/2.26=0.75=~25% porosity
c
c
c
c
c       -----------------------------------------------------------------------
c       KCODE SETTINGS
c       -----------------------------------------------------------------------
  mode  n
  ksrc  0 0 0
  kcode 20000 1 15 115
  kopts blocksize=10 kinetics=yes precursor=yes
c