B8 Reactor Core (1945) 
c
c Patrick Park
c
c CORE EVACUATED TO MEASURE HEISENBERG'S REPRODUCTION FACTOR Z = 6.7
c
c __________________
c Default MCNP units
c
c Length: cm
c Mass: g
c Energy & Temp.: MeV
c Positive density (+x): atoms/barn-cm
c Negative density (-x): g/cm3
c Time: shakes
c (1 barn = 10e-24 cm2, 1 sh = 10e-8 sec)
c
c 
c       CELL CARDS ************************************************************
c
c Core exterior
  1     0              +46:-18:+19 imp:n=0 $ void
  1000  2  -0.999438 (+45:-15:+23) +45 -46 +18 -19 +22
                                           +61 +62 +63 +64 +65 +66 imp:n=1  $ light water 
  1001  2  -0.999438 (+45:-15:+23) -45 -46 +18 -19 +22
                                           +61 +62 +63 +64 +65 +66 imp:n=1  $ light water  
  1002  2  -0.999438 (+45:-15:+23) -46 +18 -19 -22
                                           +61 +62 +63 +64 +65 +66 imp:n=1  $ light water  
c
c Inner fuel tank
  1100  7  -0.001205 +10 -11 -42        +61 +62  imp:n=1 $ empty tank
c
c                  inner         outer cylinder surfaces
  1101  5  -1.81  (+42:-10) -43 +12 -16 +61 +62  imp:n=1  $ Mg inner shell   
  1102  5  -1.81   +11 -42 -13          +61 +62  imp:n=1  $ Mg floor of grph lid 
c
  1103  6  -1.70  (+43:-12) +12 -44 -17 +63 +64  +22 imp:n=1  $ graphite jacket sides 
  1113  6  -1.70  (+43:-12) +12 -44 -17 +63 +64  -22 imp:n=1  $ graphite jacket sides 
  1104  4  -2.71  (+44:-14:+17) +15 -45 -23
                                +61 +62 +63 +64  imp:n=1  $ Al outer shell
c
  1105  6  -1.58   +13 -42 -16  +61 +62          imp:n=1  $ grph lid above Mg shell 
  1106  6  -1.58   +16 -43 -17  +61 +62          imp:n=1  $ grph top above lid 
  1107  6  -1.58   +14 -44 -12                   imp:n=1  $ grph bottom
c
c
  1201  8  -1.20                -61              imp:n=1  $ Dy2O3-HNO3 indicator
  1202  8  -1.20                -62              imp:n=1  $ Dy2O3-HNO3 indicator
  1203  8  -1.20                -63              imp:n=1  $ Dy2O3-HNO3 indicator 
  1204  8  -1.20                -64              imp:n=1  $ Dy2O3-HNO3 indicator 
  1205  8  -1.20                -65              imp:n=1  $ Dy2O3-HNO3 indicator 
  1206  8  -1.20                -66              imp:n=1  $ Dy2O3-HNO3 indicator   
c
c       ***********************************************************************

c
c       SURFACE CARDS *********************************************************
c
  10    pz     0      $ bottom plane of fuel assembly
  11    pz   124      $ top plane of fuel assembly = graphite lid floor, bottom lip
  13    pz   125      $ graphite lid floor, top lip
  16    pz   163.7    $ inner Mg shell top
  17    pz   170.3    $ outer tank lid top
  19    pz   230      $ upper universe water
c
  12    pz    -0.3    $ inner tank bot thickness
  14    pz   -45.3    $ outer tank bot
  15    pz   -45.7    $ outer tank bot thickness
  18    pz  -105      $ lower universe water
c
  20    pz    -0.1    $ bottom plane of fuel universe (to avoid cookie cutter problems)
  21    pz   124.1    $ upper plane of fuel universe  (to avoid cookie cutter problems)
  22    pz    62      $ equator for Dy2O3 detectors
  23    pz   170.7    $ upper plate of Al
c
c 30
c
  40    cz     4.4    $ cyclinder of fuel universe fill - must be at least 5*sqrt(3)/2 = 4..33
  41    cz     0.2    $ r Al string
  42    cz    61.7    $ r inside of Mg shell
  43    cz    62.0    $ r outside of Mg shell
  44    cz   105.0    $ r inside of Al shell
  45    cz   105.4    $ r outside of Al shell
  46    cz   165.4    $ radial universe water
c
c 50 
c
  61   rcc   0  13 62   0 0 168   0.5  $ Dy2O3-HNO3 indicator    
  62   rcc   0  49 62   0 0 168   0.5  $ Dy2O3-HNO3 indicator
  63   rcc   0  71 62   0 0 168   0.5  $ Dy2O3-HNO3 indicator 
  64   rcc   0  96 62   0 0 168   0.5  $ Dy2O3-HNO3 indicator 
  65   rcc   0 118 62   0 0 168   0.5  $ Dy2O3-HNO3 indicator 
  66   rcc   0 152 62   0 0 168   0.5  $ Dy2O3-HNO3 indicator
c
c       ***********************************************************************

c
c       DATA CARDS ************************************************************
c
c       ENDF8.1 with ZAID, S(a,b) libraries and temperature extensions from: 
c         osti.gov/servlets/purl/1755877
c
c
c       -----------------------------------------------------------------------
c       Light water | 1.00 g/cc | 283 K 
c       -----------------------------------------------------------------------
c
 m2     1001.06c  0.440629
        1001.00c  1.559371
        8016.00c  1.000000
c
mt2     h-h2o.41t  $ 284 K in ENDF8.0 / use h-h2o.40t for 294 K
c
c
c
c
c       -----------------------------------------------------------------------
c       6061 Aluminum | 2.71 g/cc | 294 K 
c       -----------------------------------------------------------------------
c  
  m4    12024.00c  0.00874797    $ Mg-24
        12025.00c  0.00110748    $ Mg-25
        12026.00c  0.00121933    $ Mg-26
        13027.00c  0.97666759    $ Al-27
        14028.00c  0.00530331    $ Si-28
        14029.00c  0.00026941    $ Si-29
        14030.00c  0.00017781    $ Si-30
        22046.00c  0.00004639    $ Ti-46
        22047.00c  0.00004184    $ Ti-47
        22048.00c  0.00041455    $ Ti-48
        22049.00c  0.00003042    $ Ti-49
        22050.00c  0.00002913    $ Ti-50
        24050.00c  0.00004499    $ Cr-50
        24052.00c  0.00086752    $ Cr-52
        24053.00c  0.00009837    $ Cr-53
        24054.00c  0.00002449    $ Cr-54
        25055.00c  0.00048996    $ Mn-55
        26054.00c  0.00014086    $ Fe-54
        26056.00c  0.00221127    $ Fe-56
        26057.00c  0.00005107    $ Fe-57
        26058.00c  0.00000680    $ Fe-58
        29063.00c  0.00082039    $ Cu-63
        29065.00c  0.00036566    $ Cu-65
        30064.00c  0.00040042    $ Zn-64
        30066.00c  0.00022973    $ Zn-66
        30067.00c  0.00003376    $ Zn-67
        30068.00c  0.00015439    $ Zn-68
        30070.00c  0.00000511    $ Zn-70
c
  mt4   al-27.40t  fe-56.40t     $ 294 K
c
c
c
c
c       -----------------------------------------------------------------------
c       AZ91D Magnesium alloy | 1.81 g/cc | 294 K 
c       -----------------------------------------------------------------------
c 
  m5    12024.00c  0.72080175    $ Mg-24
        12025.00c  0.09125228    $ Mg-25
        12026.00c  0.10046876    $ Mg-26
        13027.00c  0.08243372    $ Al-27
        14028.00c  0.00024345    $ Si-28
        14029.00c  0.00001237    $ Si-29
        14030.00c  0.00000816    $ Si-30
        25055.00c  0.00089968    $ Mn-55
        26054.00c  0.00000129    $ Fe-54
        26056.00c  0.00002030    $ Fe-56
        26057.00c  0.00000047    $ Fe-57
        26058.00c  0.00000006    $ Fe-58
        29063.00c  0.00005380    $ Cu-63
        29065.00c  0.00002398    $ Cu-65
        30064.00c  0.00183818    $ Zn-64
        30066.00c  0.00105460    $ Zn-66
        30067.00c  0.00015498    $ Zn-67
        30068.00c  0.00070874    $ Zn-68
        30070.00c  0.00002344    $ Zn-70
c 
  mt5   al-27.40t  fe-56.40t     $ 294 K
c
c
c
c
c       -----------------------------------------------------------------------
c       Siemens electrographite | 1.70 g/cc | 294 K 
c         Impurities from Hanle's data + halved according to Bopp B7 report
c         Atom fractions | B: 3.50e-06 | Cd: 1.00e-07
c         EBC wppm | B: 3.150385e+00 | Cd: 2.906586e-01 | total: 3.441044e+00
c       -----------------------------------------------------------------------
c
  m6     6012.00c 9.892964e-01   $ C-12
         6013.00c 1.069996e-02   $ C-13
         5010.00c 6.964975e-07   $ B-10
         5011.00c 2.803490e-06   $ B-11
        48110.00c 1.248996e-08   $ Cd-110
        48111.00c 1.279995e-08   $ Cd-111
        48112.00c 2.412991e-08   $ Cd-112
        48113.00c 1.221996e-08   $ Cd-113
        48114.00c 2.872990e-08   $ Cd-114
        48116.00c 7.489973e-09   $ Cd-116
c
  mt6   grph30.40t $ 30% porosity S(a,B) from 1.7/2.26=0.75=~25% porosity
c
c
c
c
c       -----------------------------------------------------------------------
c       Air | 0.001205 g/cc | 294 K 
c       -----------------------------------------------------------------------
c 
 m7    7014.00c  0.781450700  $ N-14
       7015.00c  0.002886360  $ N-15
       8016.00c  0.210259720  $ O-16
       8017.00c  0.000080093  $ O-17
       8018.00c  0.000432082  $ O-18
      18036.00c  0.000015782  $ Ar-36
      18038.00c  0.000002964  $ Ar-38
      18040.00c  0.004671296  $ Ar-40
       6012.00c  0.000198851  $ C-12
       6013.00c  0.000002151  $ C-13
c
c
c
c
c       -----------------------------------------------------------------------
c       Dy(NO3)3 in dilute HNO3 (actual detector solution) | 294 K 
c         Heisenberg 48 writes 10 g Dy2O3 was diluted in 100 cc HNO3
c       -----------------------------------------------------------------------
c
 m8      1001.00c  -0.09359        $ H (water)
         7014.00c  -0.01958        $ N (nitrate)
         8016.00c  -0.81114        $ O (water + nitrate)
        66156.00c  -0.0000424088   $ Dy-156 (nat. abund.)
        66158.00c  -0.0000719435   $ Dy-158
        66160.00c  -0.0017637517   $ Dy-160
        66161.00c  -0.0143046397   $ Dy-161
        66162.00c  -0.0192922175   $ Dy-162
        66163.00c  -0.0188537408   $ Dy-163
        66164.00c  -0.0214012980   $ Dy-164
mt8   h-h2o.41t                  $ bound H in H2O at 284 K 
c
c
c
c       -----------------------------------------------------------------------
c       SOURCE DEFINITION
c       RaBe source pg79: inis.iaea.org/collection/NCLCollectionStore/
c                         _Public/21/092/21092101.pdf 
c       -----------------------------------------------------------------------
c
 sdef   pos= 0 0 62  erg=d1  par=n
c
 si1    0.316    0.398    0.501    0.631    0.794    1.000    1.260
        1.580    2.000    2.510    3.160    3.980    5.010    6.310
        7.940   10.000   12.600
c
 sp1    0        3.47e-3  2.66e-3  1.65e-3  2.03e-3  1.06e-2  2.75e-2 
        5.19e-2  6.55e-2  7.31e-2  9.95e-2  1.64e-1  1.78e-1  1.21e-1
        1.41e-1  5.71e-2  1.39e-3 
c
c
c
c       -----------------------------------------------------------------------
c       TALLIES
c       -----------------------------------------------------------------------
c
  e0    1e-6 20 $ 1e-9 900ilog 2e1 
c
 fc4     lwtr mantle neutron population 
  f4:n   1000
 sd4     1
 fm4     -1.104  2  -2 $ 1.104
c
 fc14    lwtr lid population 
  f14:n  1001 
 sd14    1
 fm14    -1.104  2  -2  $ -0.0365  8  -2 
c
 fc24    grph mantle neutron population 
  f24:n   1103
 sd24     1
 fm24    -0.04498  6  -2 $ -1  8  -2
c
 fc34    grph lid population 
  f34:n  (1105 1106) 
 sd34    1
 fm34    -0.04914  6  -2 $ -0.0365  8  -2 
c
 fc114   dy2o3 indicator 1
  f114:n 1201
 sd114   1
 fm114   -1 8 -2 
c
 fc124   dy2o3 indicator 2
  f124:n 1202
 sd124   1
 fm124   -1 8 -2 
c
 fc134   dy2o3 indicator 3
  f134:n 1203
 sd134   1
 fm134   -1 8 -2 
c
 fc144   dy2o3 indicator 4
  f144:n 1204
 sd144   1
 fm144   -1 8 -2 
c
 fc154   dy2o3 indicator 5
  f154:n 1205
 sd154   1
 fm154   -1 8 -2 
c
 fc164   dy2o3 indicator 6
  f164:n 1206
 sd164   1
 fm164   -1 8 -2 
c
c
c       -----------------------------------------------------------------------
c       PARTICLE MODE AND PARTICLES PER SECOND
c       -----------------------------------------------------------------------
 mode   n
  nps   1e6
 print  110
c
c       ***********************************************************************